9572.33 550163
382647 151914
558351 9572.33
111075 431042
253951 313290
120949 421307
453873 102653
358949 184224
301682 259205
349603 195429
432220 143744
373343 172259
522836 49668.9
550924 26889
129020 416814
273490 297540
364761 181322
475620 95634.2
136153 410464
329161 226625
381979 166289
491764 81957.7
200468 348328
358933 189878
227678 330632
380058 169288
280736 282863
190662 359612
145826 403805
348534 204335
38810.6 540243
413750 145851
84026.7 477576
234731 322396
309399 246410
102075 457332
348303 206312
152391 401131
24937.6 543995
231569 329450
285333 266767
173635 381958
39070.2 534927
160158 395680
451103 122721
48922.5 513615
61007.4 511094
74036.8 480346
299534 259534
347164 209894
290693 264761
326676 227102
517152 53043.1
305802 250432
530712 36526.6
42893.3 529104
463257 102507
343658 220589
213469 344584
73385.1 486131
505408 59016.8
496929 74674.6
